Running all continuous
Set parameter Username
Set parameter LicenseID to value 2741331
Academic license - for non-commercial use only - expires 2026-11-19
-----------------------------------------------------------------
e_l=None, e_u=None, c_l=None, c_u=None
Inside the find_pareto_points function
Gurobi Optimizer version 11.0.3 build v11.0.3rc0 (linux64 - "Ubuntu 20.04.6 LTS")

CPU model: Intel(R) Xeon(R) CPU E5-2660 v2 @ 2.20GHz, instruction set [SSE2|AVX]
Thread count: 20 physical cores, 40 logical processors, using up to 20 threads

Optimize a model with 12905 rows, 3601 columns and 38083 nonzeros
Model fingerprint: 0x2cb9e746
Coefficient statistics:
  Matrix range     [1e+00, 4e+00]
  Objective range  [1e+00, 4e+00]
  Bounds range     [1e+00, 1e+00]
  RHS range        [1e+00, 1e+03]
Presolve removed 10197 rows and 2492 columns
Presolve time: 0.02s
Presolved: 2708 rows, 1109 columns, 7849 nonzeros

Concurrent LP optimizer: primal simplex, dual simplex, and barrier
Showing barrier log only...

Ordering time: 0.00s

Barrier statistics:
 Dense cols : 19
 AA' NZ     : 6.561e+03
 Factor NZ  : 2.301e+04 (roughly 1 MB of memory)
 Factor Ops : 3.166e+05 (less than 1 second per iteration)
 Threads    : 1

                  Objective                Residual
Iter       Primal          Dual         Primal    Dual     Compl     Time
   0   4.20418077e+02  5.04723590e+03  1.63e+01 1.98e+00  1.69e+01     0s
   1   1.71425962e+02  5.45522251e+03  3.10e+00 3.94e-03  3.67e+00     0s
   2   8.05492069e+01  1.36834728e+03  2.63e-02 5.04e-03  4.33e-01     0s
   3   1.12659082e+02  2.36253281e+02  5.73e-04 3.75e-04  4.10e-02     0s
   4   1.45873970e+02  1.60469612e+02  7.74e-05 1.37e-04  4.84e-03     0s
   5   1.50956953e+02  1.53640026e+02  7.93e-06 2.00e-05  8.89e-04     0s
   6   1.51816976e+02  1.51876202e+02  5.18e-08 3.67e-06  1.96e-05     0s
   7   1.51833333e+02  1.51833334e+02  4.88e-13 2.49e-07  2.60e-10     0s
   8   1.51833333e+02  1.51833333e+02  1.69e-14 3.37e-09  1.91e-12     0s

Barrier solved model in 8 iterations and 0.04 seconds (0.02 work units)
Optimal objective 1.51833333e+02

Crossover log...

     176 DPushes remaining with DInf 0.0000000e+00                 0s
       0 DPushes remaining with DInf 0.0000000e+00                 0s

       1 PPushes remaining with PInf 0.0000000e+00                 0s
       0 PPushes remaining with PInf 0.0000000e+00                 0s

  Push phase complete: Pinf 0.0000000e+00, Dinf 4.2632564e-14      0s


Solved with barrier
Iteration    Objective       Primal Inf.    Dual Inf.      Time
     175    1.5183333e+02   0.000000e+00   0.000000e+00      0s

Use crossover to convert LP symmetric solution to basic solution...
Crossover log...

       0 DPushes remaining with DInf 0.0000000e+00                 0s

      16 PPushes remaining with PInf 0.0000000e+00                 0s
       0 PPushes remaining with PInf 0.0000000e+00                 0s

  Push phase complete: Pinf 0.0000000e+00, Dinf 6.6391337e-14      0s

Iteration    Objective       Primal Inf.    Dual Inf.      Time
     220    1.5183333e+02   0.000000e+00   0.000000e+00      0s

Solved in 220 iterations and 0.06 seconds (0.03 work units)
Optimal objective  1.518333333e+02
lam[0,0] = 0.1666666666666666
lam[0,1] = 0.16666666666666666
lam[0,2] = 0.0
lam[0,3] = 0.16666666666666669
lam[0,4] = 0.0
lam[0,5] = 0.16666666666666677
lam[0,6] = 0.1666666666666667
lam[0,7] = 0.1666666666666666
tau[0,0,L0] = 0.16666666666666669
tau[0,0,L1] = 0.6666666666666666
tau[0,0,L2] = 0.16666666666666669
tau[0,1,L0] = 0.5
tau[0,1,L1] = 0.33333333333333337
tau[0,1,L2] = 0.16666666666666663
tau[0,2,L0] = 0.33333333333333326
tau[0,2,L1] = 0.16666666666666663
tau[0,2,L2] = 0.5000000000000001
tau[0,3,L0] = 0.33333333333333337
tau[0,3,L1] = 0.0
tau[0,3,L2] = 0.16666666666666663
m[0,0] = 1.0
m[0,1] = 0.6666666666666666
m[0,2] = 0.8333333333333333
m[0,3] = 0.6666666666666666
m[0,4] = 0.8333333333333334
m[0,5] = 0.8333333333333334
m[0,6] = 1.0
m[0,7] = 0.9999999999999999
m[0,8] = 1.0000000000000002
m[0,9] = 0.8333333333333334
m[0,10] = 0.8333333333333334
m[0,11] = 0.8333333333333333
m[0,12] = 0.8333333333333333
m[0,13] = 0.9999999999999999
m[0,14] = 0.8333333333333333
m[0,15] = 0.8333333333333333
m[0,16] = 0.8333333333333333
m[0,17] = 0.6666666666666665
m[0,18] = 0.8333333333333333
m[0,19] = 1.0
m[0,20] = 1.0
m[0,21] = 0.8333333333333334
m[0,22] = 1.0
m[0,23] = 0.8333333333333334
m[0,24] = 0.8333333333333334
m[0,25] = 0.8333333333333334
m[0,26] = 0.8333333333333333
m[0,27] = 0.6666666666666666
m[0,28] = 0.6666666666666666
m[0,29] = 1.0
m[0,30] = 0.8333333333333333
m[0,31] = 0.6666666666666666
m[0,32] = 0.8333333333333334
m[0,33] = 1.0
m[0,34] = 0.8333333333333333
m[0,35] = 0.8333333333333334
m[0,36] = 0.6666666666666667
m[0,37] = 0.8333333333333334
m[0,38] = 0.8333333333333334
m[0,39] = 0.8333333333333333
m[0,40] = 0.6666666666666666
m[0,41] = 0.6666666666666666
m[0,42] = 1.0
m[0,43] = 0.8333333333333334
m[0,44] = 0.5
m[0,45] = 0.9999999999999999
m[0,46] = 1.0
m[0,47] = 0.8333333333333334
m[0,48] = 0.6666666666666666
m[0,49] = 1.0
m[0,50] = 1.0
m[0,51] = 0.8333333333333333
m[0,52] = 0.8333333333333333
m[0,53] = 0.8333333333333334
m[0,54] = 0.8333333333333333
m[0,55] = 0.8333333333333333
m[0,56] = 1.0
m[0,57] = 1.0
m[0,58] = 0.49999999999999994
m[0,59] = 0.9999999999999999
m[0,60] = 1.0
m[0,61] = 0.9999999999999999
m[0,62] = 0.6666666666666666
m[0,63] = 0.9999999999999999
m[0,64] = 0.8333333333333334
m[0,65] = 1.0
m[0,66] = 0.6666666666666667
m[0,67] = 0.8333333333333334
m[0,68] = 0.8333333333333335
m[0,69] = 1.0
m[0,70] = 1.0
m[0,71] = 0.8333333333333335
m[0,72] = 0.8333333333333333
m[0,73] = 0.6666666666666667
m[0,74] = 0.9999999999999999
m[0,75] = 0.8333333333333333
m[0,76] = 0.6666666666666666
m[0,77] = 1.0
m[0,78] = 1.0
m[0,79] = 1.0
m[0,80] = 0.8333333333333334
m[0,81] = 0.8333333333333335
m[0,82] = 1.0
m[0,83] = 0.6666666666666666
m[0,84] = 1.0
m[0,85] = 1.0
m[0,86] = 0.8333333333333334
m[0,87] = 1.0
m[0,88] = 1.0
m[0,89] = 1.0
m[0,90] = 1.0
m[0,91] = 0.8333333333333334
m[0,92] = 0.8333333333333334
m[0,93] = 1.0
m[0,94] = 0.8333333333333333
m[0,95] = 1.0
m[0,96] = 0.8333333333333333
m[0,97] = 0.8333333333333334
m[0,98] = 1.0
m[0,99] = 1.0
m[0,100] = 1.0
m[0,101] = 1.0
m[0,102] = 1.0
m[0,103] = 0.9999999999999999
m[0,104] = 0.8333333333333334
m[0,105] = 1.0
m[0,106] = 1.0
m[0,107] = 0.8333333333333333
m[0,108] = 0.8333333333333334
m[0,109] = 1.0
m[0,110] = 0.8333333333333333
m[0,111] = 1.0
m[0,112] = 1.0
m[0,113] = 0.8333333333333334
m[0,114] = 0.8333333333333334
m[0,115] = 0.8333333333333334
m[0,116] = 0.8333333333333334
m[0,117] = 0.8333333333333334
m[0,118] = 1.0
m[0,119] = 1.0
m[0,120] = 1.0
m[0,121] = 1.0
m[0,122] = 1.0
m[0,123] = 1.0
m[0,124] = 1.0
m[0,125] = 1.0
m[0,126] = 0.6666666666666666
m[0,127] = 1.0
m[0,128] = 0.6666666666666666
m[0,129] = 1.0
m[0,130] = 0.3333333333333333
m[0,131] = 0.5
m[0,132] = 0.5
m[0,133] = 0.5
m[0,134] = 0.5000000000000001
m[0,135] = 0.8333333333333334
m[0,136] = 0.6666666666666667
m[0,137] = 0.6666666666666667
m[0,138] = 0.8333333333333335
m[0,139] = 0.6666666666666667
m[0,140] = 0.6666666666666667
m[0,141] = 0.6666666666666667
m[0,142] = 0.8333333333333335
m[0,143] = 0.8333333333333335
m[0,144] = 0.6666666666666667
m[0,145] = 0.6666666666666667
m[0,146] = 0.8333333333333334
m[0,147] = 0.8333333333333334
m[0,148] = 0.8333333333333335
m[0,149] = 0.6666666666666667
m[0,150] = 0.8333333333333336
m[0,151] = 0.6666666666666669
m[0,152] = 0.6666666666666667
m[0,153] = 0.8333333333333335
m[0,154] = 0.6666666666666667
m[0,155] = 0.8333333333333334
m[0,156] = 0.8333333333333334
m[0,157] = 0.8333333333333334
m[0,158] = 0.8333333333333334
m[0,159] = 0.8333333333333335
m[0,160] = 0.8333333333333334
m[0,161] = 0.6666666666666667
m[0,162] = 0.6666666666666667
m[0,163] = 0.6666666666666667
m[0,164] = 0.8333333333333335
m[0,165] = 0.8333333333333334
m[0,166] = 1.0
m[0,167] = 0.8333333333333335
m[0,168] = 0.6666666666666667
m[0,169] = 0.8333333333333334
m[0,170] = 0.6666666666666667
m[0,171] = 0.6666666666666669
m[0,172] = 0.6666666666666666
m[0,173] = 0.8333333333333334
m[0,174] = 0.8333333333333334
m[0,175] = 0.8333333333333335
m[0,176] = 0.8333333333333335
m[0,177] = 0.6666666666666666
m[L0,0] = 1.0
m[L0,1] = 1.0
m[L0,2] = 1.0
m[L0,3] = 1.0
m[L0,4] = 1.0
m[L0,5] = 1.0
m[L0,6] = 1.0
m[L0,7] = 1.0
m[L0,8] = 1.0
m[L0,9] = 1.0
m[L0,10] = 1.0
m[L0,11] = 1.0
m[L0,12] = 1.0
m[L0,13] = 1.0
m[L0,14] = 1.0
m[L0,15] = 1.0
m[L0,16] = 1.0
m[L0,17] = 1.0
m[L0,18] = 1.0
m[L0,19] = 1.0
m[L0,20] = 1.0
m[L0,21] = 1.0
m[L0,22] = 1.0
m[L0,23] = 1.0
m[L0,24] = 1.0
m[L0,25] = 1.0
m[L0,26] = 1.0
m[L0,27] = 1.0
m[L0,28] = 1.0
m[L0,29] = 1.0
m[L0,30] = 1.0
m[L0,31] = 1.0
m[L0,32] = 1.0
m[L0,33] = 1.0
m[L0,34] = 1.0
m[L0,35] = 1.0
m[L0,36] = 1.0
m[L0,37] = 1.0
m[L0,38] = 1.0
m[L0,39] = 1.0
m[L0,40] = 1.0
m[L0,41] = 1.0
m[L0,42] = 1.0
m[L0,43] = 1.0
m[L0,44] = 1.0
m[L0,45] = 1.0
m[L0,46] = 1.0
m[L0,47] = 1.0
m[L0,48] = 1.0
m[L0,49] = 1.0
m[L0,50] = 1.0
m[L0,51] = 1.0
m[L0,52] = 1.0
m[L0,53] = 1.0
m[L0,54] = 1.0
m[L0,55] = 1.0
m[L0,56] = 1.0
m[L0,57] = 1.0
m[L0,58] = 1.0
m[L0,59] = 0.0
m[L0,60] = 0.0
m[L0,61] = 0.0
m[L0,62] = 0.0
m[L0,63] = 0.0
m[L0,64] = 0.0
m[L0,65] = 0.0
m[L0,66] = 0.0
m[L0,67] = 0.0
m[L0,68] = 0.0
m[L0,69] = 0.0
m[L0,70] = 0.0
m[L0,71] = 0.0
m[L0,72] = 0.0
m[L0,73] = 0.0
m[L0,74] = 0.0
m[L0,75] = 0.0
m[L0,76] = 0.0
m[L0,77] = 0.0
m[L0,78] = 0.0
m[L0,79] = 0.0
m[L0,80] = 0.0
m[L0,81] = 0.0
m[L0,82] = 0.0
m[L0,83] = 0.0
m[L0,84] = 0.0
m[L0,85] = 0.0
m[L0,86] = 0.0
m[L0,87] = 0.0
m[L0,88] = 0.0
m[L0,89] = 0.0
m[L0,90] = 0.0
m[L0,91] = 0.0
m[L0,92] = 0.0
m[L0,93] = 0.0
m[L0,94] = 0.0
m[L0,95] = 0.0
m[L0,96] = 0.0
m[L0,97] = 0.0
m[L0,98] = 0.0
m[L0,99] = 0.0
m[L0,100] = 0.0
m[L0,101] = 0.0
m[L0,102] = 0.0
m[L0,103] = 0.0
m[L0,104] = 0.0
m[L0,105] = 0.0
m[L0,106] = 0.0
m[L0,107] = 0.0
m[L0,108] = 0.0
m[L0,109] = 0.0
m[L0,110] = 0.0
m[L0,111] = 0.0
m[L0,112] = 0.0
m[L0,113] = 0.0
m[L0,114] = 0.0
m[L0,115] = 0.0
m[L0,116] = 0.0
m[L0,117] = 0.0
m[L0,118] = 0.0
m[L0,119] = 0.0
m[L0,120] = 0.0
m[L0,121] = 0.0
m[L0,122] = 0.0
m[L0,123] = 0.0
m[L0,124] = 0.0
m[L0,125] = 0.0
m[L0,126] = 0.0
m[L0,127] = 0.0
m[L0,128] = 0.0
m[L0,129] = 0.0
m[L0,130] = 0.0
m[L0,131] = 0.0
m[L0,132] = 0.0
m[L0,133] = 0.0
m[L0,134] = 0.0
m[L0,135] = 0.0
m[L0,136] = 0.0
m[L0,137] = 0.0
m[L0,138] = 0.0
m[L0,139] = 0.0
m[L0,140] = 0.0
m[L0,141] = 0.0
m[L0,142] = 0.0
m[L0,143] = 0.0
m[L0,144] = 0.0
m[L0,145] = 0.0
m[L0,146] = 0.0
m[L0,147] = 0.0
m[L0,148] = 0.0
m[L0,149] = 0.0
m[L0,150] = 0.0
m[L0,151] = 0.0
m[L0,152] = 0.0
m[L0,153] = 0.0
m[L0,154] = 0.0
m[L0,155] = 0.0
m[L0,156] = 0.0
m[L0,157] = 0.0
m[L0,158] = 0.0
m[L0,159] = 0.0
m[L0,160] = 0.0
m[L0,161] = 0.0
m[L0,162] = 0.0
m[L0,163] = 0.0
m[L0,164] = 0.0
m[L0,165] = 0.0
m[L0,166] = 0.0
m[L0,167] = 0.0
m[L0,168] = 0.0
m[L0,169] = 0.0
m[L0,170] = 0.0
m[L0,171] = 0.0
m[L0,172] = 0.0
m[L0,173] = 0.0
m[L0,174] = 0.0
m[L0,175] = 0.0
m[L0,176] = 0.0
m[L0,177] = 0.0
m[L1,0] = 0.0
m[L1,1] = 0.0
m[L1,2] = 0.0
m[L1,3] = 0.0
m[L1,4] = 0.0
m[L1,5] = 0.0
m[L1,6] = 0.0
m[L1,7] = 0.0
m[L1,8] = 0.0
m[L1,9] = 0.0
m[L1,10] = 0.0
m[L1,11] = 0.0
m[L1,12] = 0.0
m[L1,13] = 0.0
m[L1,14] = 0.0
m[L1,15] = 0.0
m[L1,16] = 0.0
m[L1,17] = 0.0
m[L1,18] = 0.0
m[L1,19] = 0.0
m[L1,20] = 0.0
m[L1,21] = 0.0
m[L1,22] = 0.0
m[L1,23] = 0.0
m[L1,24] = 0.0
m[L1,25] = 0.0
m[L1,26] = 0.0
m[L1,27] = 0.0
m[L1,28] = 0.0
m[L1,29] = 0.0
m[L1,30] = 0.0
m[L1,31] = 0.0
m[L1,32] = 0.0
m[L1,33] = 0.0
m[L1,34] = 0.0
m[L1,35] = 0.0
m[L1,36] = 0.0
m[L1,37] = 0.0
m[L1,38] = 0.0
m[L1,39] = 0.0
m[L1,40] = 0.0
m[L1,41] = 0.0
m[L1,42] = 0.0
m[L1,43] = 0.0
m[L1,44] = 0.0
m[L1,45] = 0.0
m[L1,46] = 0.0
m[L1,47] = 0.0
m[L1,48] = 0.0
m[L1,49] = 0.0
m[L1,50] = 0.0
m[L1,51] = 0.0
m[L1,52] = 0.0
m[L1,53] = 0.0
m[L1,54] = 0.0
m[L1,55] = 0.0
m[L1,56] = 0.0
m[L1,57] = 0.0
m[L1,58] = 0.0
m[L1,59] = 1.0
m[L1,60] = 1.0
m[L1,61] = 1.0
m[L1,62] = 1.0
m[L1,63] = 1.0
m[L1,64] = 1.0
m[L1,65] = 1.0
m[L1,66] = 1.0
m[L1,67] = 1.0
m[L1,68] = 1.0
m[L1,69] = 1.0
m[L1,70] = 1.0
m[L1,71] = 1.0
m[L1,72] = 1.0
m[L1,73] = 1.0
m[L1,74] = 1.0
m[L1,75] = 1.0
m[L1,76] = 1.0
m[L1,77] = 1.0
m[L1,78] = 1.0
m[L1,79] = 1.0
m[L1,80] = 1.0
m[L1,81] = 1.0
m[L1,82] = 1.0
m[L1,83] = 1.0
m[L1,84] = 1.0
m[L1,85] = 1.0
m[L1,86] = 1.0
m[L1,87] = 1.0
m[L1,88] = 1.0
m[L1,89] = 1.0
m[L1,90] = 1.0
m[L1,91] = 1.0
m[L1,92] = 1.0
m[L1,93] = 1.0
m[L1,94] = 1.0
m[L1,95] = 1.0
m[L1,96] = 1.0
m[L1,97] = 1.0
m[L1,98] = 1.0
m[L1,99] = 1.0
m[L1,100] = 1.0
m[L1,101] = 1.0
m[L1,102] = 1.0
m[L1,103] = 1.0
m[L1,104] = 1.0
m[L1,105] = 1.0
m[L1,106] = 1.0
m[L1,107] = 1.0
m[L1,108] = 1.0
m[L1,109] = 1.0
m[L1,110] = 1.0
m[L1,111] = 1.0
m[L1,112] = 1.0
m[L1,113] = 1.0
m[L1,114] = 1.0
m[L1,115] = 1.0
m[L1,116] = 1.0
m[L1,117] = 1.0
m[L1,118] = 1.0
m[L1,119] = 1.0
m[L1,120] = 1.0
m[L1,121] = 1.0
m[L1,122] = 1.0
m[L1,123] = 1.0
m[L1,124] = 1.0
m[L1,125] = 1.0
m[L1,126] = 1.0
m[L1,127] = 1.0
m[L1,128] = 1.0
m[L1,129] = 1.0
m[L1,130] = 0.0
m[L1,131] = 0.0
m[L1,132] = 0.0
m[L1,133] = 0.0
m[L1,134] = 0.0
m[L1,135] = 0.0
m[L1,136] = 0.0
m[L1,137] = 0.0
m[L1,138] = 0.0
m[L1,139] = 0.0
m[L1,140] = 0.0
m[L1,141] = 0.0
m[L1,142] = 0.0
m[L1,143] = 0.0
m[L1,144] = 0.0
m[L1,145] = 0.0
m[L1,146] = 0.0
m[L1,147] = 0.0
m[L1,148] = 0.0
m[L1,149] = 0.0
m[L1,150] = 0.0
m[L1,151] = 0.0
m[L1,152] = 0.0
m[L1,153] = 0.0
m[L1,154] = 0.0
m[L1,155] = 0.0
m[L1,156] = 0.0
m[L1,157] = 0.0
m[L1,158] = 0.0
m[L1,159] = 0.0
m[L1,160] = 0.0
m[L1,161] = 0.0
m[L1,162] = 0.0
m[L1,163] = 0.0
m[L1,164] = 0.0
m[L1,165] = 0.0
m[L1,166] = 0.0
m[L1,167] = 0.0
m[L1,168] = 0.0
m[L1,169] = 0.0
m[L1,170] = 0.0
m[L1,171] = 0.0
m[L1,172] = 0.0
m[L1,173] = 0.0
m[L1,174] = 0.0
m[L1,175] = 0.0
m[L1,176] = 0.0
m[L1,177] = 0.0
m[L2,0] = 0.0
m[L2,1] = 0.0
m[L2,2] = 0.0
m[L2,3] = 0.0
m[L2,4] = 0.0
m[L2,5] = 0.0
m[L2,6] = 0.0
m[L2,7] = 0.0
m[L2,8] = 0.0
m[L2,9] = 0.0
m[L2,10] = 0.0
m[L2,11] = 0.0
m[L2,12] = 0.0
m[L2,13] = 0.0
m[L2,14] = 0.0
m[L2,15] = 0.0
m[L2,16] = 0.0
m[L2,17] = 0.0
m[L2,18] = 0.0
m[L2,19] = 0.0
m[L2,20] = 0.0
m[L2,21] = 0.0
m[L2,22] = 0.0
m[L2,23] = 0.0
m[L2,24] = 0.0
m[L2,25] = 0.0
m[L2,26] = 0.0
m[L2,27] = 0.0
m[L2,28] = 0.0
m[L2,29] = 0.0
m[L2,30] = 0.0
m[L2,31] = 0.0
m[L2,32] = 0.0
m[L2,33] = 0.0
m[L2,34] = 0.0
m[L2,35] = 0.0
m[L2,36] = 0.0
m[L2,37] = 0.0
m[L2,38] = 0.0
m[L2,39] = 0.0
m[L2,40] = 0.0
m[L2,41] = 0.0
m[L2,42] = 0.0
m[L2,43] = 0.0
m[L2,44] = 0.0
m[L2,45] = 0.0
m[L2,46] = 0.0
m[L2,47] = 0.0
m[L2,48] = 0.0
m[L2,49] = 0.0
m[L2,50] = 0.0
m[L2,51] = 0.0
m[L2,52] = 0.0
m[L2,53] = 0.0
m[L2,54] = 0.0
m[L2,55] = 0.0
m[L2,56] = 0.0
m[L2,57] = 0.0
m[L2,58] = 0.0
m[L2,59] = 0.0
m[L2,60] = 0.0
m[L2,61] = 0.0
m[L2,62] = 0.0
m[L2,63] = 0.0
m[L2,64] = 0.0
m[L2,65] = 0.0
m[L2,66] = 0.0
m[L2,67] = 0.0
m[L2,68] = 0.0
m[L2,69] = 0.0
m[L2,70] = 0.0
m[L2,71] = 0.0
m[L2,72] = 0.0
m[L2,73] = 0.0
m[L2,74] = 0.0
m[L2,75] = 0.0
m[L2,76] = 0.0
m[L2,77] = 0.0
m[L2,78] = 0.0
m[L2,79] = 0.0
m[L2,80] = 0.0
m[L2,81] = 0.0
m[L2,82] = 0.0
m[L2,83] = 0.0
m[L2,84] = 0.0
m[L2,85] = 0.0
m[L2,86] = 0.0
m[L2,87] = 0.0
m[L2,88] = 0.0
m[L2,89] = 0.0
m[L2,90] = 0.0
m[L2,91] = 0.0
m[L2,92] = 0.0
m[L2,93] = 0.0
m[L2,94] = 0.0
m[L2,95] = 0.0
m[L2,96] = 0.0
m[L2,97] = 0.0
m[L2,98] = 0.0
m[L2,99] = 0.0
m[L2,100] = 0.0
m[L2,101] = 0.0
m[L2,102] = 0.0
m[L2,103] = 0.0
m[L2,104] = 0.0
m[L2,105] = 0.0
m[L2,106] = 0.0
m[L2,107] = 0.0
m[L2,108] = 0.0
m[L2,109] = 0.0
m[L2,110] = 0.0
m[L2,111] = 0.0
m[L2,112] = 0.0
m[L2,113] = 0.0
m[L2,114] = 0.0
m[L2,115] = 0.0
m[L2,116] = 0.0
m[L2,117] = 0.0
m[L2,118] = 0.0
m[L2,119] = 0.0
m[L2,120] = 0.0
m[L2,121] = 0.0
m[L2,122] = 0.0
m[L2,123] = 0.0
m[L2,124] = 0.0
m[L2,125] = 0.0
m[L2,126] = 0.0
m[L2,127] = 0.0
m[L2,128] = 0.0
m[L2,129] = 0.0
m[L2,130] = 1.0
m[L2,131] = 1.0
m[L2,132] = 1.0
m[L2,133] = 1.0
m[L2,134] = 1.0
m[L2,135] = 1.0
m[L2,136] = 1.0
m[L2,137] = 1.0
m[L2,138] = 1.0
m[L2,139] = 1.0
m[L2,140] = 1.0
m[L2,141] = 1.0
m[L2,142] = 1.0
m[L2,143] = 1.0
m[L2,144] = 1.0
m[L2,145] = 1.0
m[L2,146] = 1.0
m[L2,147] = 1.0
m[L2,148] = 1.0
m[L2,149] = 1.0
m[L2,150] = 1.0
m[L2,151] = 1.0
m[L2,152] = 1.0
m[L2,153] = 1.0
m[L2,154] = 1.0
m[L2,155] = 1.0
m[L2,156] = 1.0
m[L2,157] = 1.0
m[L2,158] = 1.0
m[L2,159] = 1.0
m[L2,160] = 1.0
m[L2,161] = 1.0
m[L2,162] = 1.0
m[L2,163] = 1.0
m[L2,164] = 1.0
m[L2,165] = 1.0
m[L2,166] = 1.0
m[L2,167] = 1.0
m[L2,168] = 1.0
m[L2,169] = 1.0
m[L2,170] = 1.0
m[L2,171] = 1.0
m[L2,172] = 1.0
m[L2,173] = 1.0
m[L2,174] = 1.0
m[L2,175] = 1.0
m[L2,176] = 1.0
m[L2,177] = 1.0
u[0] = 1.0
o_u[0,0] = 0.1666666666666666
o_u[0,1] = 0.16666666666666666
o_u[0,2] = 0.0
o_u[0,3] = 0.16666666666666669
o_u[0,4] = 0.0
o_u[0,5] = 0.16666666666666677
o_u[0,6] = 0.1666666666666667
o_u[0,7] = 0.1666666666666666
Solving done
--------------------
c=0.8408239700374531, e=2.1666666666666665
Appending to pareto_points list
Searching solutions with greater explainability with e_u None
-----------------------------------------------------------------
e_l=3.1666666666666665, e_u=None, c_l=None, c_u=0.8352059925093632
Inside the find_pareto_points function
Gurobi Optimizer version 11.0.3 build v11.0.3rc0 (linux64 - "Ubuntu 20.04.6 LTS")

CPU model: Intel(R) Xeon(R) CPU E5-2660 v2 @ 2.20GHz, instruction set [SSE2|AVX]
Thread count: 20 physical cores, 40 logical processors, using up to 20 threads

Optimize a model with 12907 rows, 3601 columns and 38270 nonzeros
Coefficient statistics:
  Matrix range     [1e+00, 4e+00]
  Objective range  [1e+00, 4e+00]
  Bounds range     [1e+00, 1e+00]
  RHS range        [8e-01, 1e+03]
LP warm-start: use basis

Iteration    Objective       Primal Inf.    Dual Inf.      Time
       0    1.5183333e+02   1.250000e+00   0.000000e+00      0s

Solved in 367 iterations and 0.09 seconds (0.08 work units)
Infeasible model
Solving done
Returning because the model was infeasible
Searching for solutions with greater correctness with e_l None
-----------------------------------------------------------------
e_l=None, e_u=1.1666666666666665, c_l=0.846441947565543, c_u=None
Inside the find_pareto_points function
Gurobi Optimizer version 11.0.3 build v11.0.3rc0 (linux64 - "Ubuntu 20.04.6 LTS")

CPU model: Intel(R) Xeon(R) CPU E5-2660 v2 @ 2.20GHz, instruction set [SSE2|AVX]
Thread count: 20 physical cores, 40 logical processors, using up to 20 threads

Optimize a model with 12907 rows, 3601 columns and 38270 nonzeros
Model fingerprint: 0xc74a084f
Coefficient statistics:
  Matrix range     [1e+00, 4e+00]
  Objective range  [1e+00, 4e+00]
  Bounds range     [1e+00, 1e+00]
  RHS range        [1e+00, 1e+03]
Presolve removed 10197 rows and 2492 columns
Presolve time: 0.01s
Presolved: 2710 rows, 1109 columns, 8035 nonzeros

Concurrent LP optimizer: primal simplex, dual simplex, and barrier
Showing barrier log only...

Ordering time: 0.00s

Barrier statistics:
 Dense cols : 19
 AA' NZ     : 7.011e+03
 Factor NZ  : 2.429e+04 (roughly 1 MB of memory)
 Factor Ops : 3.614e+05 (less than 1 second per iteration)
 Threads    : 1

                  Objective                Residual
Iter       Primal          Dual         Primal    Dual     Compl     Time
   0   3.37207890e+03  6.76327958e+03  1.35e+02 4.81e+00  1.79e+02     0s
   1   1.46546762e+03  1.15039355e+04  3.69e+01 1.89e-01  4.85e+01     0s
   2   1.99578477e+02  8.90690349e+03  1.83e+00 9.79e-03  4.81e+00     0s
   3   1.80495264e+02  5.42085311e+03  1.16e+00 4.43e-03  2.67e+00     0s
   4   1.61064203e+02  1.15372520e+03  3.76e-01 5.45e-04  5.58e-01     0s
   5   1.57043996e+02  4.80021410e+02  2.16e-01 2.83e-04  2.91e-01     0s
   6   1.56378174e+02 -6.71476475e+01  1.89e-01 2.00e-04  2.19e-01     0s
   7   1.56119705e+02 -3.43446526e+02  1.79e-01 1.77e-04  2.06e-01     0s
   8   1.55724112e+02 -1.51571123e+03  1.63e-01 1.40e-04  1.77e-01     0s
   9   1.55634228e+02 -3.70181884e+03  1.60e-01 1.33e-04  1.89e-01     0s
  10   1.55580717e+02 -8.07153209e+03  1.58e-01 1.25e-04  2.09e-01     0s
  11   1.55525652e+02 -1.55383563e+04  1.55e-01 1.19e-04  2.02e-01     0s
  12   1.94099681e+05  6.11089000e+05  8.00e+03 3.00e+00  9.47e+05     0s
  13   8.04968474e+04  1.21378820e+06  2.06e+03 8.82e+00  2.62e+05     0s
  14   2.62130772e+02  1.20818317e+06  3.07e+00 2.71e+00  7.94e+02     0s
  15   2.13434632e+02  4.25894635e+05  1.82e+00 7.49e-03  2.68e+02     0s

Barrier performed 15 iterations in 0.05 seconds (0.03 work units)
Barrier solve interrupted - model solved by another algorithm


Solved with dual simplex
Concurrent LP optimizer: primal simplex, dual simplex, and barrier
Showing barrier log only...

Ordering time: 0.00s

Barrier statistics:
 Dense cols : 19
 AA' NZ     : 1.043e+04
 Factor NZ  : 3.638e+04 (roughly 2 MB of memory)
 Factor Ops : 5.322e+05 (less than 1 second per iteration)
 Threads    : 1

                  Objective                Residual
Iter       Primal          Dual         Primal    Dual     Compl     Time
   0   7.13248538e+03  2.64670974e+03  2.88e+02 9.72e-01  8.91e+01     0s
   1   1.26212144e+03  3.30044619e+03  2.79e+01 1.78e+00  9.98e+00     0s
   2   2.18291319e+02  3.94910822e+03  1.74e+00 2.05e-02  1.31e+00     0s
   3   1.76871078e+02  2.00523297e+03  9.82e-01 6.96e-03  5.84e-01     0s
   4   1.65048344e+02  6.19193904e+02  5.18e-01 7.14e-04  1.63e-01     0s
   5   1.59328610e+02  3.78999785e+02  2.98e-01 6.39e-04  8.72e-02     0s
   6   1.57343636e+02  1.83434461e+02  2.21e-01 3.87e-04  5.72e-02     0s
   7   1.56543170e+02  1.39030001e+02  1.90e-01 3.64e-04  4.81e-02     0s
   8   1.55982521e+02  1.71262963e+01  1.68e-01 3.38e-04  3.98e-02     0s
   9   1.55860422e+02 -1.66083699e+02  1.63e-01 3.29e-04  3.88e-02     0s
  10   1.55707855e+02 -1.50104313e+03  1.57e-01 2.82e-04  3.82e-02     0s
  11   1.55679495e+02 -3.82435233e+03  1.56e-01 2.77e-04  3.98e-02     0s
  12   1.55648535e+02 -1.13308830e+04  1.55e-01 2.71e-04  3.53e-02     0s
  13   1.55643759e+02 -8.27064384e+05  1.55e-01 2.58e-04  1.63e-01     0s
  14   7.13248538e+03  2.64670974e+03  2.88e+02 9.72e-01  8.91e+01     0s
  15   5.90849105e+02  6.83241298e+02  1.16e+01 5.28e-01  1.06e+00     0s
  16   2.59598545e+02  1.93940108e+02  2.08e+00 3.47e-02  3.91e-02     0s
  17   2.24423777e+02  1.79344168e+02  1.36e+00 5.02e-03  2.31e-02     0s
  18   1.79814728e+02  1.64012535e+02  5.87e-01 1.92e-03  1.30e-02     0s
  19   1.60813061e+02  1.52025843e+02  3.27e-01 4.87e-04  8.31e-03     0s
  20   1.60052765e+02  1.50061170e+02  3.16e-01 3.87e-04  7.83e-03     0s
  21   1.67030718e+02  1.46832475e+02  4.02e-01 2.39e-04  9.97e-03     0s
  22   1.62097024e+02  1.43602698e+02  3.29e-01 3.57e-05  1.02e-02     0s

Barrier performed 22 iterations in 0.11 seconds (0.07 work units)
Barrier solve interrupted - model solved by another algorithm


Solved with dual simplex

Solved in 1200 iterations and 0.11 seconds (0.09 work units)
Infeasible model
Solving done
Returning because the model was infeasible
Pareto points found: 1
Elapsed: 3.89 s
